100 8
777 880
668 192
833 256
44 643
179 574
650 480
567 488
202 253
250 269
277 511
221 516
344 922
389 509
773 716
700 708
908 786
575 544
763 744
578 714
256 537
646 549
845 350
157 729
451 126
506 163
770 363
840 386
779 878
563 637
489 166
715 276
287 560
163 482
369 428
480 623
390 191
650 813
537 737
691 559
28 745
685 898
495 650
103 270
509 285
719 629
812 658
743 230
596 699
83 682
515 101
695 756
85 169
593 597
747 713
399 314
565 766
483 572
118 209
476 758
724 313
827 299
632 534
452 69
116 174
613 789
777 854
837 238
242 964
515 283
776 744
653 468
735 386
274 542
468 55
438 406
186 345
647 791
143 115
378 85
399 334
288 586
184 405
842 835
437 46
815 861
440 102
786 677
302 586
85 132
693 801
146 937
439 75
713 517
457 465
684 720
634 704
826 241
609 594
492 152
132 607
